20	100	100	100
3	100	100
23	100	100
5	100	100
26	100	100
21	100	100
33	100	100
34	100	100
2	100	100
31	100	100
10	100	100
26	100	100
35	100	100
49	100	100
30	100	100
5	100	100
23	100	100
4	100	100
14	100	100
11	100	100
48	100	100
